! Solving for graph ../../../benchmarks/abp/M-bcsstk06.mtx.rnd
! Target value is set to 42
 ! --------------------------------------------------- CP Optimizer 22.2.0.0 --
 ! Minimization problem - 421 variables, 4141 constraints, 1 phase
 ! TimeLimit            = 1800
 ! LogVerbosity         = Terse
 ! Initial process time : 0.03s (0.03s extraction + 0.00s propagation)
 !  . Log search space  : 3804.1 (before), 3804.1 (after)
 !  . Memory usage      : 1.5 MB (before), 1.5 MB (after)
 ! Using parallel search with 8 workers.
 ! ----------------------------------------------------------------------------
 !          Best Branches  Non-fixed    W       Branch decision
                        0        421                 -
 + New bound is 43
                        2        420    1   F     1 != _int245
 + New bound is 44
 ! ----------------------------------------------------------------------------
 ! Search terminated by limit, no solution found.
 ! Best bound             : 44
 ! ----------------------------------------------------------------------------
 ! Number of branches     : 216072819
 ! Number of fails        : 101914699
 ! Total memory usage     : 233.4 MB (231.5 MB CP Optimizer + 1.9 MB Concert)
 ! Time spent in solve    : 1800.04s (1800.02s engine + 0.03s extraction)
 ! Search speed (br. / s) : 120039.8
 ! ----------------------------------------------------------------------------
! --------------------------------------------------------
! No solution
! --------------------------------------------------------
